SAT/1058756_19.param
$ LBS instance with n = 19, seed = 1058756
letting cards be [36,30,35,49,23,0,31,28,32,34,37,10,40,11,12,25,13,17,18]
